0
Node Left Objective IInf Best_Integer Best_Bound ItCnt Gap
0+ 0 nan nan 11004.7490 0.0000 nan 100.00%
0+ 0 nan nan 8602.7702 0.0000 nan 100.00%
0 0 4493.1285 7 8602.7702 4493.1285 50 47.77%
0 0 4757.8075 8 8602.7702 Disjcuts:6 71 44.69%
0+ 0 nan nan 7920.0784 4757.8075 nan 39.93%
0 0 4892.5700 9 7920.0784 Cuts:7 84 38.23%
0+ 0 nan nan 7763.2976 4892.5700 nan 36.98%
0 0 5028.1055 8 7763.2976 Cuts:8 102 35.23%
0 0 5073.4968 9 7763.2976 Disjcuts:6 117 34.65%
0 0 5107.3497 9 7763.2976 Cuts:6 131 34.21%
0+ 0 nan nan 6391.6586 5107.3497 nan 20.09%
0 0 5138.6336 9 6391.6586 Disjcuts:2 144 19.60%
0+ 0 nan nan 6148.2559 5138.6336 nan 16.42%
0 0 5140.6615 9 6148.2559 Disjcuts:2 149 16.39%
0+ 0 nan nan 6136.1740 5140.6615 nan 16.22%
0 2 5140.6615 9 6136.1740 5143.1706 149 16.18%
CPXPARAM_MIP_Cuts_Gomory-Disjunctive:Gomory 0
CPXPARAM_MIP_Cuts_Gomory-Disjunctive:Disjunctive 11
1
Node Left Objective IInf Best_Integer Best_Bound ItCnt Gap
0+ 0 nan nan 11004.7490 0.0000 nan 100.00%
0 0 integral 0 4493.1285 4493.1285 53 0.00%
CPXPARAM_MIP_Cuts_Gomory-Disjunctive:Gomory 0
CPXPARAM_MIP_Cuts_Gomory-Disjunctive:Disjunctive 0
2
Node Left Objective IInf Best_Integer Best_Bound ItCnt Gap
0+ 0 nan nan 11004.7490 0.0000 nan 100.00%
0+ 0 nan nan 8602.7702 0.0000 nan 100.00%
0 0 4551.0296 6 8602.7702 4551.0296 57 47.10%
0 0 4723.4217 8 8602.7702 Cuts:7 74 45.09%
0+ 0 nan nan 7552.5117 4723.4217 nan 37.46%
0 0 4852.7734 7 7552.5117 Cuts:9 86 35.75%
0+ 0 nan nan 6344.1469 4852.7734 nan 23.51%
0 0 4983.4295 9 6344.1469 Cuts:9 104 21.45%
0+ 0 nan nan 6136.1740 4983.4295 nan 18.79%
0 0 5124.2167 7 6136.1740 Cuts:12 129 16.49%
0 0 5155.5437 8 6136.1740 Disjcuts:4 142 15.98%
0 0 5197.5894 9 6136.1740 Cuts:5 156 15.30%
0 2 5210.5353 8 6136.1740 5212.8143 156 15.05%
CPXPARAM_MIP_Cuts_Gomory-Disjunctive:Gomory 1
CPXPARAM_MIP_Cuts_Gomory-Disjunctive:Disjunctive 7
3
Node Left Objective IInf Best_Integer Best_Bound ItCnt Gap
0+ 0 nan nan 11004.7490 0.0000 nan 100.00%
0 0 integral 0 5089.3686 5089.3686 41 0.00%
CPXPARAM_MIP_Cuts_Gomory-Disjunctive:Gomory 0
CPXPARAM_MIP_Cuts_Gomory-Disjunctive:Disjunctive 0
4
Node Left Objective IInf Best_Integer Best_Bound ItCnt Gap
0+ 0 nan nan 8838.2414 0.0000 nan 100.00%
0+ 0 nan nan 8270.8148 0.0000 nan 100.00%
0 0 5798.2654 7 8270.8148 5798.2654 46 29.89%
0+ 0 nan nan 8227.5567 5798.2654 nan 29.53%
0 0 5849.7614 9 8227.5567 Cuts:7 59 28.90%
0+ 0 nan nan 6735.9051 5849.7614 nan 13.16%
0 0 5943.0794 9 6735.9051 Cuts:11 78 11.77%
0 0 5966.1356 9 6735.9051 Cuts:8 89 11.43%
0 0 5985.7172 9 6735.9051 Cuts:7 104 11.14%
0 0 6005.9499 9 6735.9051 Cuts:9 119 10.84%
0+ 0 nan nan 6593.3824 6005.9499 nan 8.91%
0 0 6008.9298 9 6593.3824 Disjcuts:1 123 8.86%
0 2 6025.2838 6 6593.3824 6040.1685 123 8.39%
CPXPARAM_MIP_Cuts_Gomory-Disjunctive:Gomory 0
CPXPARAM_MIP_Cuts_Gomory-Disjunctive:Disjunctive 11
5
Node Left Objective IInf Best_Integer Best_Bound ItCnt Gap
0+ 0 nan nan 8838.2414 0.0000 nan 100.00%
0 0 integral 0 5798.2654 5798.2654 45 0.00%
CPXPARAM_MIP_Cuts_Gomory-Disjunctive:Gomory 0
CPXPARAM_MIP_Cuts_Gomory-Disjunctive:Disjunctive 0
6
Node Left Objective IInf Best_Integer Best_Bound ItCnt Gap
0+ 0 nan nan 8838.2414 0.0000 nan 100.00%
0+ 0 nan nan 8670.4195 0.0000 nan 100.00%
0 0 5798.2654 7 8670.4195 5798.2654 52 33.13%
0+ 0 nan nan 8230.0333 5798.2654 nan 29.55%
0 0 5865.5429 9 8230.0333 Cuts:9 67 28.73%
0+ 0 nan nan 6735.9051 5865.5429 nan 12.92%
0 0 5971.4080 9 6735.9051 Cuts:11 80 11.35%
0+ 0 nan nan 6593.3824 5971.4080 nan 9.43%
0 0 6041.6135 9 6593.3824 Cuts:7 101 8.37%
0 0 6057.0224 9 6593.3824 Cuts:6 112 8.13%
0 0 6064.6156 9 6593.3824 Cuts:6 127 8.02%
0 0 6065.3421 9 6593.3824 Disjcuts:1 132 8.01%
0 2 6076.0598 7 6593.3824 6076.2206 132 7.84%
CPXPARAM_MIP_Cuts_Gomory-Disjunctive:Gomory 0
CPXPARAM_MIP_Cuts_Gomory-Disjunctive:Disjunctive 9
7
Node Left Objective IInf Best_Integer Best_Bound ItCnt Gap
0+ 0 nan nan 8838.2414 0.0000 nan 100.00%
0 0 integral 0 5935.6407 5935.6407 43 0.00%
CPXPARAM_MIP_Cuts_Gomory-Disjunctive:Gomory 0
CPXPARAM_MIP_Cuts_Gomory-Disjunctive:Disjunctive 0
8
Node Left Objective IInf Best_Integer Best_Bound ItCnt Gap
0+ 0 nan nan 10488.8441 0.0000 nan 100.00%
0+ 0 nan nan 9144.4107 0.0000 nan 100.00%
0 0 7125.1247 7 9144.4107 7125.1247 54 22.08%
0 0 7324.9618 9 9144.4107 Cuts:8 72 19.90%
0 0 7491.9623 8 9144.4107 Cuts:12 90 18.07%
0+ 0 nan nan 7965.4039 7491.9623 nan 5.94%
0 0 7525.3783 9 7965.4039 Cuts:8 104 5.52%
0 0 7534.8634 9 7965.4039 Cuts:4 114 5.41%
0 0 7551.0430 9 7965.4039 Disjcuts:3 127 5.20%
0 0 7554.7421 9 7965.4039 Disjcuts:2 132 5.16%
0 0 7557.1810 9 7965.4039 Disjcuts:1 136 5.12%
0 2 7581.5558 7 7965.4039 7591.1972 136 4.70%
CPXPARAM_MIP_Cuts_Gomory-Disjunctive:Gomory 1
CPXPARAM_MIP_Cuts_Gomory-Disjunctive:Disjunctive 9
9
Node Left Objective IInf Best_Integer Best_Bound ItCnt Gap
0+ 0 nan nan 10488.8441 0.0000 nan 100.00%
0 0 integral 0 7190.6688 7190.6688 45 0.00%
CPXPARAM_MIP_Cuts_Gomory-Disjunctive:Gomory 0
CPXPARAM_MIP_Cuts_Gomory-Disjunctive:Disjunctive 0
10
Node Left Objective IInf Best_Integer Best_Bound ItCnt Gap
0+ 0 nan nan 10488.8441 0.0000 nan 100.00%
0 0 7200.3815 5 10488.8441 7200.3815 57 31.35%
0+ 0 nan nan 9179.8638 7200.3815 nan 21.56%
0 0 7300.8600 7 9179.8638 Cuts:5 68 20.47%
0+ 0 nan nan 9144.4107 7300.8600 nan 20.16%
0 0 7434.6589 6 9144.4107 Cuts:9 79 18.70%
0+ 0 nan nan 9023.4119 7434.6589 nan 17.61%
0 0 7469.4308 8 9023.4119 Cuts:6 95 17.22%
0+ 0 nan nan 7965.4039 7469.4308 nan 6.23%
0 0 7566.9310 8 7965.4039 Cuts:4 110 5.00%
0 0 7598.0528 8 7965.4039 Cuts:6 119 4.61%
0 0 7611.0734 8 7965.4039 Disjcuts:3 127 4.45%
0 2 7619.9537 7 7965.4039 7626.1344 127 4.26%
CPXPARAM_MIP_Cuts_Gomory-Disjunctive:Gomory 3
CPXPARAM_MIP_Cuts_Gomory-Disjunctive:Disjunctive 6
11
Node Left Objective IInf Best_Integer Best_Bound ItCnt Gap
0+ 0 nan nan 10488.8441 0.0000 nan 100.00%
0 0 integral 0 7566.2609 7566.2609 45 0.00%
CPXPARAM_MIP_Cuts_Gomory-Disjunctive:Gomory 0
CPXPARAM_MIP_Cuts_Gomory-Disjunctive:Disjunctive 0
12
Node Left Objective IInf Best_Integer Best_Bound ItCnt Gap
0+ 0 nan nan 8568.0971 0.0000 nan 100.00%
0+ 0 nan nan 7682.8104 0.0000 nan 100.00%
0 0 5623.8596 7 7682.8104 5623.8596 46 26.80%
0 0 5888.7397 9 7682.8104 Cuts:8 61 23.35%
0 0 6157.6847 9 7682.8104 Cuts:14 73 19.85%
0+ 0 nan nan 7611.1122 6157.6847 nan 19.10%
0 0 6203.2702 9 7611.1122 Cuts:13 87 18.50%
0+ 0 nan nan 7103.9381 6203.2702 nan 12.68%
0 0 6268.8533 9 7103.9381 Cuts:7 103 11.76%
0+ 0 nan nan 6855.2506 6268.8533 nan 8.55%
0 0 6285.0086 8 6855.2506 Disjcuts:6 115 8.32%
0 0 6288.2613 9 6855.2506 Cuts:4 121 8.27%
0 2 6288.2613 9 6855.2506 6289.4873 121 8.25%
CPXPARAM_MIP_Cuts_Gomory-Disjunctive:Gomory 1
CPXPARAM_MIP_Cuts_Gomory-Disjunctive:Disjunctive 12
13
Node Left Objective IInf Best_Integer Best_Bound ItCnt Gap
0+ 0 nan nan 8568.0971 0.0000 nan 100.00%
0 0 integral 0 5816.6887 5816.6887 49 0.00%
CPXPARAM_MIP_Cuts_Gomory-Disjunctive:Gomory 0
CPXPARAM_MIP_Cuts_Gomory-Disjunctive:Disjunctive 0
14
Node Left Objective IInf Best_Integer Best_Bound ItCnt Gap
0+ 0 nan nan 8568.0971 0.0000 nan 100.00%
0+ 0 nan nan 7682.8104 0.0000 nan 100.00%
0 0 5623.8596 7 7682.8104 5623.8596 40 26.80%
0 0 5893.2605 9 7682.8104 Cuts:9 58 23.29%
0 0 6138.7428 9 7682.8104 Cuts:16 78 20.10%
0+ 0 nan nan 6855.2506 6138.7428 nan 10.45%
0 0 6200.9726 9 6855.2506 Cuts:10 91 9.54%
0 0 6240.1409 8 6855.2506 Cuts:8 108 8.97%
0 0 6275.9270 9 6855.2506 Cuts:7 121 8.45%
0 2 6275.9270 9 6855.2506 6276.6244 121 8.44%
CPXPARAM_MIP_Cuts_Gomory-Disjunctive:Gomory 3
CPXPARAM_MIP_Cuts_Gomory-Disjunctive:Disjunctive 7
15
Node Left Objective IInf Best_Integer Best_Bound ItCnt Gap
0+ 0 nan nan 8568.0971 0.0000 nan 100.00%
0 0 integral 0 6048.6260 6048.6260 40 0.00%
CPXPARAM_MIP_Cuts_Gomory-Disjunctive:Gomory 0
CPXPARAM_MIP_Cuts_Gomory-Disjunctive:Disjunctive 0
16
Node Left Objective IInf Best_Integer Best_Bound ItCnt Gap
0+ 0 nan nan 8483.8978 0.0000 nan 100.00%
0 0 6204.6365 7 8483.8978 6204.6365 47 26.87%
0+ 0 nan nan 8131.2738 6204.6365 nan 23.69%
0 0 6306.9549 8 8131.2738 Cuts:8 62 22.44%
0+ 0 nan nan 7170.3530 6306.9549 nan 12.04%
0 0 6332.1463 8 7170.3530 Disjcuts:5 72 11.69%
0+ 0 nan nan 7002.7404 6332.1463 nan 9.58%
0 0 6378.6355 9 7002.7404 Cuts:7 87 8.91%
0 0 6385.7095 8 7002.7404 Cuts:9 95 8.81%
0 0 6401.4113 9 7002.7404 Cuts:11 113 8.59%
0 0 6402.0076 8 7002.7404 Cuts:6 115 8.58%
0 0 6402.1457 9 7002.7404 Disjcuts:2 118 8.58%
0 0 6406.5449 9 7002.7404 Cuts:6 125 8.51%
0 2 6407.4902 8 7002.7404 6418.2760 125 8.35%
CPXPARAM_MIP_Cuts_Gomory-Disjunctive:Gomory 1
CPXPARAM_MIP_Cuts_Gomory-Disjunctive:Disjunctive 9
17
Node Left Objective IInf Best_Integer Best_Bound ItCnt Gap
0+ 0 nan nan 8483.8978 0.0000 nan 100.00%
0 0 integral 0 6303.6967 6303.6967 51 0.00%
CPXPARAM_MIP_Cuts_Gomory-Disjunctive:Gomory 0
CPXPARAM_MIP_Cuts_Gomory-Disjunctive:Disjunctive 0
18
Node Left Objective IInf Best_Integer Best_Bound ItCnt Gap
0+ 0 nan nan 8483.8978 0.0000 nan 100.00%
0 0 6236.8972 6 8483.8978 6236.8972 38 26.49%
0+ 0 nan nan 8133.9648 6236.8972 nan 23.32%
0 0 6336.0714 8 8133.9648 Cuts:7 49 22.10%
0+ 0 nan nan 6912.1997 6336.0714 nan 8.33%
0 0 6407.2298 7 6912.1997 Cuts:10 58 7.31%
0 0 6461.0276 8 6912.1997 Cuts:9 71 6.53%
0 0 6487.5662 7 6912.1997 Cuts:7 82 6.14%
0 0 6492.6306 8 6912.1997 Cuts:8 93 6.07%
0 0 6492.9091 8 6912.1997 Cuts:3 96 6.07%
0 2 6497.0345 7 6912.1997 6497.2098 96 6.00%
CPXPARAM_MIP_Cuts_Gomory-Disjunctive:Gomory 3
CPXPARAM_MIP_Cuts_Gomory-Disjunctive:Disjunctive 6
19
Node Left Objective IInf Best_Integer Best_Bound ItCnt Gap
0+ 0 nan nan 8483.8978 0.0000 nan 100.00%
0 0 integral 0 6443.0511 6443.0511 38 0.00%
CPXPARAM_MIP_Cuts_Gomory-Disjunctive:Gomory 0
CPXPARAM_MIP_Cuts_Gomory-Disjunctive:Disjunctive 0
20
Node Left Objective IInf Best_Integer Best_Bound ItCnt Gap
0+ 0 nan nan 6916.5237 0.0000 nan 100.00%
0+ 0 nan nan 6541.4998 0.0000 nan 100.00%
0 0 4118.1255 7 6541.4998 4118.1255 41 37.05%
0+ 0 nan nan 4855.5259 4118.1255 nan 15.19%
0 0 4160.7988 8 4855.5259 Cuts:7 54 14.31%
0 0 4198.3593 9 4855.5259 Cuts:5 63 13.53%
0 0 4255.7823 8 4855.5259 Cuts:8 74 12.35%
0+ 0 nan nan 4585.7755 4255.7823 nan 7.20%
0 0 4288.3589 8 4585.7755 Cuts:6 86 6.49%
0 0 4296.5977 9 4585.7755 Disjcuts:6 90 6.31%
0 0 4300.6810 9 4585.7755 Fract:1 93 6.22%
0 0 4309.8559 9 4585.7755 Cuts:3 100 6.02%
0 0 4312.6945 9 4585.7755 Disjcuts:1 103 5.95%
0 2 4320.7151 6 4585.7755 4322.0249 103 5.75%
CPXPARAM_MIP_Cuts_Gomory-Disjunctive:Gomory 4
CPXPARAM_MIP_Cuts_Gomory-Disjunctive:Disjunctive 5
21
Node Left Objective IInf Best_Integer Best_Bound ItCnt Gap
0+ 0 nan nan 6916.5237 0.0000 nan 100.00%
0 0 integral 0 4118.1255 4118.1255 40 0.00%
CPXPARAM_MIP_Cuts_Gomory-Disjunctive:Gomory 0
CPXPARAM_MIP_Cuts_Gomory-Disjunctive:Disjunctive 0
22
Node Left Objective IInf Best_Integer Best_Bound ItCnt Gap
0+ 0 nan nan 6916.5237 0.0000 nan 100.00%
0+ 0 nan nan 6561.8501 0.0000 nan 100.00%
0 0 4118.6281 7 6561.8501 4118.6281 35 37.23%
0+ 0 nan nan 5710.7534 4118.6281 nan 27.88%
0 0 4164.0208 8 5710.7534 Cuts:6 46 27.08%
0 0 4213.4486 8 5710.7534 Cuts:13 60 26.22%
0 0 4272.9541 8 5710.7534 Cuts:9 69 25.18%
0+ 0 nan nan 4654.2661 4272.9541 nan 8.19%
0 0 4314.4907 9 4654.2661 Cuts:7 80 7.30%
0 0 4339.4988 7 4654.2661 Cuts:8 91 6.76%
0+ 0 nan nan 4585.7755 4339.4988 nan 5.37%
0 2 4342.1360 5 4585.7755 4342.6287 91 5.30%
CPXPARAM_MIP_Cuts_Gomory-Disjunctive:Gomory 1
CPXPARAM_MIP_Cuts_Gomory-Disjunctive:Disjunctive 5
23
Node Left Objective IInf Best_Integer Best_Bound ItCnt Gap
0+ 0 nan nan 6916.5237 0.0000 nan 100.00%
0 0 integral 0 4118.1255 4118.1255 40 0.00%
CPXPARAM_MIP_Cuts_Gomory-Disjunctive:Gomory 0
CPXPARAM_MIP_Cuts_Gomory-Disjunctive:Disjunctive 0
24
Node Left Objective IInf Best_Integer Best_Bound ItCnt Gap
0+ 0 nan nan 7116.0235 0.0000 nan 100.00%
0+ 0 nan nan 6300.8955 0.0000 nan 100.00%
0 0 5093.9502 7 6300.8955 5093.9502 50 19.16%
0+ 0 nan nan 6203.5640 5093.9502 nan 17.89%
0 0 5099.7266 9 6203.5640 Cuts:6 58 17.79%
0+ 0 nan nan 5981.3367 5099.7266 nan 14.74%
0 0 5106.3245 9 5981.3367 Cuts:4 64 14.63%
0+ 0 nan nan 5723.2729 5106.3245 nan 10.78%
0 0 5121.7240 9 5723.2729 Cuts:9 72 10.51%
0+ 0 nan nan 5285.5091 5121.7240 nan 3.10%
0 0 5135.7739 8 5285.5091 Cuts:7 88 2.83%
0 0 5143.8489 8 5285.5091 Disjcuts:7 100 2.68%
0 2 5144.4565 7 5285.5091 5146.7121 100 2.63%
CPXPARAM_MIP_Cuts_Gomory-Disjunctive:Gomory 1
CPXPARAM_MIP_Cuts_Gomory-Disjunctive:Disjunctive 5
25
Node Left Objective IInf Best_Integer Best_Bound ItCnt Gap
0+ 0 nan nan 7116.0235 0.0000 nan 100.00%
0 0 integral 0 5101.0707 5101.0707 44 0.00%
CPXPARAM_MIP_Cuts_Gomory-Disjunctive:Gomory 0
CPXPARAM_MIP_Cuts_Gomory-Disjunctive:Disjunctive 0
26
Node Left Objective IInf Best_Integer Best_Bound ItCnt Gap
0+ 0 nan nan 7116.0235 0.0000 nan 100.00%
0+ 0 nan nan 6326.3054 0.0000 nan 100.00%
0 0 5099.6969 6 6326.3054 5099.6969 42 19.39%
0+ 0 nan nan 6203.7226 5099.6969 nan 17.80%
0 0 5103.4560 6 6203.7226 Cuts:7 50 17.74%
0+ 0 nan nan 5981.3367 5103.4560 nan 14.68%
0 0 5140.5918 7 5981.3367 Cuts:6 60 14.06%
0+ 0 nan nan 5285.5091 5140.5918 nan 2.74%
0 0 5167.5373 8 5285.5091 Cuts:10 74 2.23%
0 0 5171.3856 7 5285.5091 Cuts:7 88 2.16%
0 0 5192.4595 7 5285.5091 Cuts:6 105 1.76%
0 0 cutoff 5285.5091 5192.4595 105 1.76% 0
CPXPARAM_MIP_Cuts_Gomory-Disjunctive:Gomory 0
CPXPARAM_MIP_Cuts_Gomory-Disjunctive:Disjunctive 5
27
Node Left Objective IInf Best_Integer Best_Bound ItCnt Gap
0+ 0 nan nan 7116.0235 0.0000 nan 100.00%
0 0 5102.0512 1 7116.0235 5102.0512 36 28.30%
0+ 0 nan nan 5102.4619 5102.0512 nan 0.01%
CPXPARAM_MIP_Cuts_Gomory-Disjunctive:Gomory 0
CPXPARAM_MIP_Cuts_Gomory-Disjunctive:Disjunctive 0
28
Node Left Objective IInf Best_Integer Best_Bound ItCnt Gap
0+ 0 nan nan 10996.9752 0.0000 nan 100.00%
0+ 0 nan nan 10656.8722 0.0000 nan 100.00%
0 0 8102.9887 7 10656.8722 8102.9887 53 23.96%
0+ 0 nan nan 9323.1599 8102.9887 nan 13.09%
0 0 8190.8453 9 9323.1599 Cuts:7 70 12.15%
0 0 8313.3167 8 9323.1599 Cuts:10 83 10.83%
0+ 0 nan nan 8702.9889 8313.3167 nan 4.48%
0 0 8373.4685 9 8702.9889 Cuts:10 96 3.79%
0 0 8414.0112 8 8702.9889 Cuts:9 112 3.32%
0 0 8432.7353 9 8702.9889 Cuts:5 129 3.11%
0 2 8437.0237 7 8702.9889 8437.8673 129 3.05%
CPXPARAM_MIP_Cuts_Gomory-Disjunctive:Gomory 1
CPXPARAM_MIP_Cuts_Gomory-Disjunctive:Disjunctive 12
29
Node Left Objective IInf Best_Integer Best_Bound ItCnt Gap
0+ 0 nan nan 10996.9752 0.0000 nan 100.00%
0 0 integral 0 8102.9887 8102.9887 45 0.00%
CPXPARAM_MIP_Cuts_Gomory-Disjunctive:Gomory 0
CPXPARAM_MIP_Cuts_Gomory-Disjunctive:Disjunctive 0
30
Node Left Objective IInf Best_Integer Best_Bound ItCnt Gap
0+ 0 nan nan 10996.9752 0.0000 nan 100.00%
0+ 0 nan nan 10687.4588 0.0000 nan 100.00%
0 0 8102.9887 7 10687.4588 8102.9887 46 24.18%
0+ 0 nan nan 9323.1599 8102.9887 nan 13.09%
0 0 8185.2827 9 9323.1599 Cuts:6 59 12.20%
0 0 8333.2084 8 9323.1599 Cuts:9 74 10.62%
0 0 8385.9828 8 9323.1599 Cuts:12 85 10.05%
0+ 0 nan nan 8702.9889 8385.9828 nan 3.64%
0 0 8405.4754 8 8702.9889 Cuts:10 104 3.42%
0 0 8418.6984 7 8702.9889 Cuts:8 114 3.27%
0 0 8422.9941 7 8702.9889 Cuts:3 123 3.22%
0 2 8426.5823 5 8702.9889 8429.0252 123 3.15%
CPXPARAM_MIP_Cuts_Gomory-Disjunctive:Gomory 1
CPXPARAM_MIP_Cuts_Gomory-Disjunctive:Disjunctive 9
31
Node Left Objective IInf Best_Integer Best_Bound ItCnt Gap
0+ 0 nan nan 10996.9752 0.0000 nan 100.00%
0 0 integral 0 8102.9887 8102.9887 39 0.00%
CPXPARAM_MIP_Cuts_Gomory-Disjunctive:Gomory 0
CPXPARAM_MIP_Cuts_Gomory-Disjunctive:Disjunctive 0
32
Node Left Objective IInf Best_Integer Best_Bound ItCnt Gap
0+ 0 nan nan 8525.2825 0.0000 nan 100.00%
0+ 0 nan nan 7594.6640 0.0000 nan 100.00%
0 0 4523.5692 7 7594.6640 4523.5692 51 40.44%
0+ 0 nan nan 7273.8068 4523.5692 nan 37.81%
0 0 4575.0155 9 7273.8068 Cuts:6 63 37.10%
0+ 0 nan nan 5953.6921 4575.0155 nan 23.16%
0 0 4700.5517 9 5953.6921 Cuts:10 84 21.05%
0+ 0 nan nan 5572.7330 4700.5517 nan 15.65%
0 0 4764.8808 9 5572.7330 Cuts:10 102 14.50%
0 0 4905.9245 9 5572.7330 Cuts:9 119 11.97%
0 0 4949.8205 8 5572.7330 Cuts:9 134 11.18%
0 2 4989.7358 6 5572.7330 4996.6034 134 10.34%
CPXPARAM_MIP_Cuts_Gomory-Disjunctive:Gomory 0
CPXPARAM_MIP_Cuts_Gomory-Disjunctive:Disjunctive 8
33
Node Left Objective IInf Best_Integer Best_Bound ItCnt Gap
0+ 0 nan nan 8525.2825 0.0000 nan 100.00%
0 0 integral 0 4536.2805 4536.2805 46 0.00%
CPXPARAM_MIP_Cuts_Gomory-Disjunctive:Gomory 0
CPXPARAM_MIP_Cuts_Gomory-Disjunctive:Disjunctive 0
34
Node Left Objective IInf Best_Integer Best_Bound ItCnt Gap
0+ 0 nan nan 8525.2825 0.0000 nan 100.00%
0+ 0 nan nan 7625.7406 0.0000 nan 100.00%
0 0 4536.2805 6 7625.7406 4536.2805 41 40.51%
0+ 0 nan nan 7330.1259 4536.2805 nan 38.11%
0 0 4605.5586 9 7330.1259 Cuts:7 57 37.17%
0+ 0 nan nan 6498.2692 4605.5586 nan 29.13%
0 0 4742.7266 8 6498.2692 Cuts:11 72 27.02%
0+ 0 nan nan 5572.7330 4742.7266 nan 14.89%
0 0 4827.4661 8 5572.7330 Cuts:9 85 13.37%
0 0 4973.8421 6 5572.7330 Cuts:7 107 10.75%
0 0 5035.4492 8 5572.7330 Cuts:6 124 9.64%
0 0 5059.3654 8 5572.7330 Cuts:4 136 9.21%
0 0 5091.3968 8 5572.7330 Disjcuts:2 141 8.64%
0 2 5131.0409 5 5572.7330 5150.5443 141 7.58%
CPXPARAM_MIP_Cuts_Gomory-Disjunctive:Gomory 1
CPXPARAM_MIP_Cuts_Gomory-Disjunctive:Disjunctive 9
35
Node Left Objective IInf Best_Integer Best_Bound ItCnt Gap
0+ 0 nan nan 8525.2825 0.0000 nan 100.00%
0+ 0 nan nan 5710.8795 0.0000 nan 100.00%
0 0 integral 0 5672.7423 5672.7423 40 0.00%
CPXPARAM_MIP_Cuts_Gomory-Disjunctive:Gomory 0
CPXPARAM_MIP_Cuts_Gomory-Disjunctive:Disjunctive 0
36
Node Left Objective IInf Best_Integer Best_Bound ItCnt Gap
0+ 0 nan nan 9622.7131 0.0000 nan 100.00%
0+ 0 nan nan 8425.2960 0.0000 nan 100.00%
0 0 5884.9287 7 8425.2960 5884.9287 55 30.15%
0+ 0 nan nan 7846.0391 5884.9287 nan 24.99%
0 0 5943.4728 8 7846.0391 Cuts:6 70 24.25%
0+ 0 nan nan 7474.8202 5943.4728 nan 20.49%
0 0 6017.6883 9 7474.8202 Cuts:11 87 19.49%
0+ 0 nan nan 6920.5132 6017.6883 nan 13.05%
0 0 6069.8929 9 6920.5132 Cuts:13 101 12.29%
0 0 6100.6437 9 6920.5132 Cuts:13 123 11.85%
0+ 0 nan nan 6886.9543 6100.6437 nan 11.42%
0 0 6112.3868 9 6886.9543 Cuts:10 137 11.25%
0 0 6120.3186 9 6886.9543 Disjcuts:2 149 11.13%
0 0 6122.4949 9 6886.9543 Cuts:2 156 11.10%
0 0 6123.0113 9 6886.9543 Disjcuts:1 161 11.09%
0 0 6123.6859 9 6886.9543 Fract:1 163 11.08%
0 2 6123.6859 9 6886.9543 6125.6975 163 11.05%
CPXPARAM_MIP_Cuts_Gomory-Disjunctive:Gomory 3
CPXPARAM_MIP_Cuts_Gomory-Disjunctive:Disjunctive 9
37
Node Left Objective IInf Best_Integer Best_Bound ItCnt Gap
0+ 0 nan nan 9622.7131 0.0000 nan 100.00%
0 0 integral 0 5884.9287 5884.9287 48 0.00%
CPXPARAM_MIP_Cuts_Gomory-Disjunctive:Gomory 0
CPXPARAM_MIP_Cuts_Gomory-Disjunctive:Disjunctive 0
38
Node Left Objective IInf Best_Integer Best_Bound ItCnt Gap
0+ 0 nan nan 9622.7131 0.0000 nan 100.00%
0+ 0 nan nan 8425.2960 0.0000 nan 100.00%
0 0 5884.9287 7 8425.2960 5884.9287 41 30.15%
0+ 0 nan nan 7846.0391 5884.9287 nan 24.99%
0 0 5952.0515 7 7846.0391 Cuts:8 57 24.14%
0+ 0 nan nan 7474.8202 5952.0515 nan 20.37%
0 0 6031.1765 8 7474.8202 Cuts:8 70 19.31%
0+ 0 nan nan 6920.5132 6031.1765 nan 12.85%
0 0 6099.7572 7 6920.5132 Cuts:9 90 11.86%
0 0 6127.8885 8 6920.5132 Cuts:12 104 11.45%
0 0 6134.3897 8 6920.5132 Cuts:6 116 11.36%
0 0 6142.4401 8 6920.5132 Disjcuts:3 132 11.24%
0+ 0 nan nan 6886.9543 6142.4401 nan 10.81%
0 0 6150.2655 7 6886.9543 Disjcuts:2 143 10.70%
0 0 6151.6476 8 6886.9543 Cuts:3 150 10.68%
0+ 0 nan nan 6794.1480 6151.6476 nan 9.46%
0 2 6154.4582 6 6794.1480 6156.6084 150 9.38%
CPXPARAM_MIP_Cuts_Gomory-Disjunctive:Gomory 2
CPXPARAM_MIP_Cuts_Gomory-Disjunctive:Disjunctive 7
39
Node Left Objective IInf Best_Integer Best_Bound ItCnt Gap
0+ 0 nan nan 9622.7131 0.0000 nan 100.00%
0 0 integral 0 5998.5362 5998.5362 40 0.00%
CPXPARAM_MIP_Cuts_Gomory-Disjunctive:Gomory 0
CPXPARAM_MIP_Cuts_Gomory-Disjunctive:Disjunctive 0
